c A SAT instance generated from a 3-CNF formula that had 26 clauses and 13 variables
p cnf 13 26
-5 10 -1 0
3 6 -12 0
7 9 1 0
12 -8 4 0
-1 8 12 0
3 -13 -11 0
-3 8 -2 0
2 4 -11 0
-1 -11 -12 0
1 5 12 0
13 -11 -1 0
8 4 -3 0
5 3 -6 0
5 -12 -6 0
-4 -8 -5 0
-8 11 2 0
8 11 -7 0
-1 9 6 0
-11 7 8 0
4 3 -9 0
1 9 -4 0
-6 -2 -10 0
12 11 -3 0
4 9 -12 0
-4 -7 3 0
5 2 7 0
